Problem:    mdgp
Rows:       235
Columns:    200 (200 integer, 200 binary)
Non-zeros:  1180
Status:     INTEGER OPTIMAL
Objective:  obj = 7504.066 (MAXimum)

   No.   Row name        Activity     Lower bound   Upper bound
------ ------------    ------------- ------------- -------------
     1 obj                   7504.07                             
     2 pertenceGrupo[0]
                                   1             1             = 
     3 pertenceGrupo[1]
                                   1             1             = 
     4 pertenceGrupo[2]
                                   1             1             = 
     5 pertenceGrupo[3]
                                   1             1             = 
     6 pertenceGrupo[4]
                                   1             1             = 
     7 pertenceGrupo[5]
                                   1             1             = 
     8 pertenceGrupo[6]
                                   1             1             = 
     9 pertenceGrupo[7]
                                   1             1             = 
    10 pertenceGrupo[8]
                                   1             1             = 
    11 pertenceGrupo[9]
                                   1             1             = 
    12 minimoIndividuosGrupo[0]
                                   5             5               
    13 minimoIndividuosGrupo[1]
                                   5             5               
    14 maximoIndividuosGrupo[0]
                                   5                           5 
    15 maximoIndividuosGrupo[1]
                                   5                           5 
    16 individuosMesmoGrupo[0,0,1]
                                   1                           1 
    17 individuosMesmoGrupo[0,0,2]
                                   1                           1 
    18 individuosMesmoGrupo[0,0,3]
                                   1                           1 
    19 individuosMesmoGrupo[0,0,4]
                                   1                           1 
    20 individuosMesmoGrupo[0,0,5]
                                   1                           1 
    21 individuosMesmoGrupo[0,0,6]
                                   1                           1 
    22 individuosMesmoGrupo[0,0,7]
                                   1                           1 
    23 individuosMesmoGrupo[0,0,8]
                                   1                           1 
    24 individuosMesmoGrupo[0,0,9]
                                   1                           1 
    25 individuosMesmoGrupo[0,1,0]
                                   1                           1 
    26 individuosMesmoGrupo[0,1,2]
                                   0                           1 
    27 individuosMesmoGrupo[0,1,3]
                                   1                           1 
    28 individuosMesmoGrupo[0,1,4]
                                   0                           1 
    29 individuosMesmoGrupo[0,1,5]
                                   0                           1 
    30 individuosMesmoGrupo[0,1,6]
                                   0                           1 
    31 individuosMesmoGrupo[0,1,7]
                                   1                           1 
    32 individuosMesmoGrupo[0,1,8]
                                   1                           1 
    33 individuosMesmoGrupo[0,1,9]
                                   1                           1 
    34 individuosMesmoGrupo[0,2,0]
                                   1                           1 
    35 individuosMesmoGrupo[0,2,1]
                                   0                           1 
    36 individuosMesmoGrupo[0,2,3]
                                   1                           1 
    37 individuosMesmoGrupo[0,2,4]
                                   0                           1 
    38 individuosMesmoGrupo[0,2,5]
                                   0                           1 
    39 individuosMesmoGrupo[0,2,6]
                                   0                           1 
    40 individuosMesmoGrupo[0,2,7]
                                   1                           1 
    41 individuosMesmoGrupo[0,2,8]
                                   1                           1 
    42 individuosMesmoGrupo[0,2,9]
                                   1                           1 
    43 individuosMesmoGrupo[0,3,0]
                                   1                           1 
    44 individuosMesmoGrupo[0,3,1]
                                   1                           1 
    45 individuosMesmoGrupo[0,3,2]
                                   1                           1 
    46 individuosMesmoGrupo[0,3,4]
                                   1                           1 
    47 individuosMesmoGrupo[0,3,5]
                                   1                           1 
    48 individuosMesmoGrupo[0,3,6]
                                   1                           1 
    49 individuosMesmoGrupo[0,3,7]
                                   1                           1 
    50 individuosMesmoGrupo[0,3,8]
                                   1                           1 
    51 individuosMesmoGrupo[0,3,9]
                                   1                           1 
    52 individuosMesmoGrupo[0,4,0]
                                   1                           1 
    53 individuosMesmoGrupo[0,4,1]
                                   0                           1 
    54 individuosMesmoGrupo[0,4,2]
                                   0                           1 
    55 individuosMesmoGrupo[0,4,3]
                                   1                           1 
    56 individuosMesmoGrupo[0,4,5]
                                   0                           1 
    57 individuosMesmoGrupo[0,4,6]
                                   0                           1 
    58 individuosMesmoGrupo[0,4,7]
                                   1                           1 
    59 individuosMesmoGrupo[0,4,8]
                                   1                           1 
    60 individuosMesmoGrupo[0,4,9]
                                   1                           1 
    61 individuosMesmoGrupo[0,5,0]
                                   1                           1 
    62 individuosMesmoGrupo[0,5,1]
                                   0                           1 
    63 individuosMesmoGrupo[0,5,2]
                                   0                           1 
    64 individuosMesmoGrupo[0,5,3]
                                   1                           1 
    65 individuosMesmoGrupo[0,5,4]
                                   0                           1 
    66 individuosMesmoGrupo[0,5,6]
                                   0                           1 
    67 individuosMesmoGrupo[0,5,7]
                                   1                           1 
    68 individuosMesmoGrupo[0,5,8]
                                   1                           1 
    69 individuosMesmoGrupo[0,5,9]
                                   1                           1 
    70 individuosMesmoGrupo[0,6,0]
                                   1                           1 
    71 individuosMesmoGrupo[0,6,1]
                                   0                           1 
    72 individuosMesmoGrupo[0,6,2]
                                   0                           1 
    73 individuosMesmoGrupo[0,6,3]
                                   1                           1 
    74 individuosMesmoGrupo[0,6,4]
                                   0                           1 
    75 individuosMesmoGrupo[0,6,5]
                                   0                           1 
    76 individuosMesmoGrupo[0,6,7]
                                   1                           1 
    77 individuosMesmoGrupo[0,6,8]
                                   1                           1 
    78 individuosMesmoGrupo[0,6,9]
                                   1                           1 
    79 individuosMesmoGrupo[0,7,0]
                                   1                           1 
    80 individuosMesmoGrupo[0,7,1]
                                   1                           1 
    81 individuosMesmoGrupo[0,7,2]
                                   1                           1 
    82 individuosMesmoGrupo[0,7,3]
                                   1                           1 
    83 individuosMesmoGrupo[0,7,4]
                                   1                           1 
    84 individuosMesmoGrupo[0,7,5]
                                   1                           1 
    85 individuosMesmoGrupo[0,7,6]
                                   1                           1 
    86 individuosMesmoGrupo[0,7,8]
                                   1                           1 
    87 individuosMesmoGrupo[0,7,9]
                                   1                           1 
    88 individuosMesmoGrupo[0,8,0]
                                   1                           1 
    89 individuosMesmoGrupo[0,8,1]
                                   1                           1 
    90 individuosMesmoGrupo[0,8,2]
                                   1                           1 
    91 individuosMesmoGrupo[0,8,3]
                                   1                           1 
    92 individuosMesmoGrupo[0,8,4]
                                   1                           1 
    93 individuosMesmoGrupo[0,8,5]
                                   1                           1 
    94 individuosMesmoGrupo[0,8,6]
                                   1                           1 
    95 individuosMesmoGrupo[0,8,7]
                                   1                           1 
    96 individuosMesmoGrupo[0,8,9]
                                   1                           1 
    97 individuosMesmoGrupo[0,9,0]
                                   1                           1 
    98 individuosMesmoGrupo[0,9,1]
                                   1                           1 
    99 individuosMesmoGrupo[0,9,2]
                                   1                           1 
   100 individuosMesmoGrupo[0,9,3]
                                   1                           1 
   101 individuosMesmoGrupo[0,9,4]
                                   1                           1 
   102 individuosMesmoGrupo[0,9,5]
                                   1                           1 
   103 individuosMesmoGrupo[0,9,6]
                                   1                           1 
   104 individuosMesmoGrupo[0,9,7]
                                   1                           1 
   105 individuosMesmoGrupo[0,9,8]
                                   1                           1 
   106 individuosMesmoGrupo[1,0,1]
                                   1                           1 
   107 individuosMesmoGrupo[1,0,2]
                                   1                           1 
   108 individuosMesmoGrupo[1,0,3]
                                   0                           1 
   109 individuosMesmoGrupo[1,0,4]
                                   1                           1 
   110 individuosMesmoGrupo[1,0,5]
                                   1                           1 
   111 individuosMesmoGrupo[1,0,6]
                                   1                           1 
   112 individuosMesmoGrupo[1,0,7]
                                   0                           1 
   113 individuosMesmoGrupo[1,0,8]
                                   0                           1 
   114 individuosMesmoGrupo[1,0,9]
                                   0                           1 
   115 individuosMesmoGrupo[1,1,0]
                                   1                           1 
   116 individuosMesmoGrupo[1,1,2]
                                   1                           1 
   117 individuosMesmoGrupo[1,1,3]
                                   1                           1 
   118 individuosMesmoGrupo[1,1,4]
                                   1                           1 
   119 individuosMesmoGrupo[1,1,5]
                                   1                           1 
   120 individuosMesmoGrupo[1,1,6]
                                   1                           1 
   121 individuosMesmoGrupo[1,1,7]
                                   1                           1 
   122 individuosMesmoGrupo[1,1,8]
                                   1                           1 
   123 individuosMesmoGrupo[1,1,9]
                                   1                           1 
   124 individuosMesmoGrupo[1,2,0]
                                   1                           1 
   125 individuosMesmoGrupo[1,2,1]
                                   1                           1 
   126 individuosMesmoGrupo[1,2,3]
                                   1                           1 
   127 individuosMesmoGrupo[1,2,4]
                                   1                           1 
   128 individuosMesmoGrupo[1,2,5]
                                   1                           1 
   129 individuosMesmoGrupo[1,2,6]
                                   1                           1 
   130 individuosMesmoGrupo[1,2,7]
                                   1                           1 
   131 individuosMesmoGrupo[1,2,8]
                                   1                           1 
   132 individuosMesmoGrupo[1,2,9]
                                   1                           1 
   133 individuosMesmoGrupo[1,3,0]
                                   0                           1 
   134 individuosMesmoGrupo[1,3,1]
                                   1                           1 
   135 individuosMesmoGrupo[1,3,2]
                                   1                           1 
   136 individuosMesmoGrupo[1,3,4]
                                   1                           1 
   137 individuosMesmoGrupo[1,3,5]
                                   1                           1 
   138 individuosMesmoGrupo[1,3,6]
                                   1                           1 
   139 individuosMesmoGrupo[1,3,7]
                                   0                           1 
   140 individuosMesmoGrupo[1,3,8]
                                   0                           1 
   141 individuosMesmoGrupo[1,3,9]
                                   0                           1 
   142 individuosMesmoGrupo[1,4,0]
                                   1                           1 
   143 individuosMesmoGrupo[1,4,1]
                                   1                           1 
   144 individuosMesmoGrupo[1,4,2]
                                   1                           1 
   145 individuosMesmoGrupo[1,4,3]
                                   1                           1 
   146 individuosMesmoGrupo[1,4,5]
                                   1                           1 
   147 individuosMesmoGrupo[1,4,6]
                                   1                           1 
   148 individuosMesmoGrupo[1,4,7]
                                   1                           1 
   149 individuosMesmoGrupo[1,4,8]
                                   1                           1 
   150 individuosMesmoGrupo[1,4,9]
                                   1                           1 
   151 individuosMesmoGrupo[1,5,0]
                                   1                           1 
   152 individuosMesmoGrupo[1,5,1]
                                   1                           1 
   153 individuosMesmoGrupo[1,5,2]
                                   1                           1 
   154 individuosMesmoGrupo[1,5,3]
                                   1                           1 
   155 individuosMesmoGrupo[1,5,4]
                                   1                           1 
   156 individuosMesmoGrupo[1,5,6]
                                   1                           1 
   157 individuosMesmoGrupo[1,5,7]
                                   1                           1 
   158 individuosMesmoGrupo[1,5,8]
                                   1                           1 
   159 individuosMesmoGrupo[1,5,9]
                                   1                           1 
   160 individuosMesmoGrupo[1,6,0]
                                   1                           1 
   161 individuosMesmoGrupo[1,6,1]
                                   1                           1 
   162 individuosMesmoGrupo[1,6,2]
                                   1                           1 
   163 individuosMesmoGrupo[1,6,3]
                                   1                           1 
   164 individuosMesmoGrupo[1,6,4]
                                   1                           1 
   165 individuosMesmoGrupo[1,6,5]
                                   1                           1 
   166 individuosMesmoGrupo[1,6,7]
                                   1                           1 
   167 individuosMesmoGrupo[1,6,8]
                                   1                           1 
   168 individuosMesmoGrupo[1,6,9]
                                   1                           1 
   169 individuosMesmoGrupo[1,7,0]
                                   0                           1 
   170 individuosMesmoGrupo[1,7,1]
                                   1                           1 
   171 individuosMesmoGrupo[1,7,2]
                                   1                           1 
   172 individuosMesmoGrupo[1,7,3]
                                   0                           1 
   173 individuosMesmoGrupo[1,7,4]
                                   1                           1 
   174 individuosMesmoGrupo[1,7,5]
                                   1                           1 
   175 individuosMesmoGrupo[1,7,6]
                                   1                           1 
   176 individuosMesmoGrupo[1,7,8]
                                   0                           1 
   177 individuosMesmoGrupo[1,7,9]
                                   0                           1 
   178 individuosMesmoGrupo[1,8,0]
                                   0                           1 
   179 individuosMesmoGrupo[1,8,1]
                                   1                           1 
   180 individuosMesmoGrupo[1,8,2]
                                   1                           1 
   181 individuosMesmoGrupo[1,8,3]
                                   0                           1 
   182 individuosMesmoGrupo[1,8,4]
                                   1                           1 
   183 individuosMesmoGrupo[1,8,5]
                                   1                           1 
   184 individuosMesmoGrupo[1,8,6]
                                   1                           1 
   185 individuosMesmoGrupo[1,8,7]
                                   0                           1 
   186 individuosMesmoGrupo[1,8,9]
                                   0                           1 
   187 individuosMesmoGrupo[1,9,0]
                                   0                           1 
   188 individuosMesmoGrupo[1,9,1]
                                   1                           1 
   189 individuosMesmoGrupo[1,9,2]
                                   1                           1 
   190 individuosMesmoGrupo[1,9,3]
                                   0                           1 
   191 individuosMesmoGrupo[1,9,4]
                                   1                           1 
   192 individuosMesmoGrupo[1,9,5]
                                   1                           1 
   193 individuosMesmoGrupo[1,9,6]
                                   1                           1 
   194 individuosMesmoGrupo[1,9,7]
                                   0                           1 
   195 individuosMesmoGrupo[1,9,8]
                                   0                           1 
   196 relIndividuoGrupoMin[0,0]
                                   0            -0               
   197 relIndividuoGrupoMin[0,1]
                                   0            -0               
   198 relIndividuoGrupoMin[1,0]
                                   0            -0               
   199 relIndividuoGrupoMin[1,1]
                                   0            -0               
   200 relIndividuoGrupoMin[2,0]
                                   0            -0               
   201 relIndividuoGrupoMin[2,1]
                                   0            -0               
   202 relIndividuoGrupoMin[3,0]
                                   0            -0               
   203 relIndividuoGrupoMin[3,1]
                                   0            -0               
   204 relIndividuoGrupoMin[4,0]
                                   0            -0               
   205 relIndividuoGrupoMin[4,1]
                                   0            -0               
   206 relIndividuoGrupoMin[5,0]
                                   0            -0               
   207 relIndividuoGrupoMin[5,1]
                                   0            -0               
   208 relIndividuoGrupoMin[6,0]
                                   0            -0               
   209 relIndividuoGrupoMin[6,1]
                                   0            -0               
   210 relIndividuoGrupoMin[7,0]
                                   0            -0               
   211 relIndividuoGrupoMin[7,1]
                                   0            -0               
   212 relIndividuoGrupoMin[8,0]
                                   0            -0               
   213 relIndividuoGrupoMin[8,1]
                                   0            -0               
   214 relIndividuoGrupoMin[9,0]
                                   0            -0               
   215 relIndividuoGrupoMin[9,1]
                                   0            -0               
   216 relIndividuoGrupoMax[0,0]
                                   0                          -0 
   217 relIndividuoGrupoMax[0,1]
                                   0                          -0 
   218 relIndividuoGrupoMax[1,0]
                                   0                          -0 
   219 relIndividuoGrupoMax[1,1]
                                   0                          -0 
   220 relIndividuoGrupoMax[2,0]
                                   0                          -0 
   221 relIndividuoGrupoMax[2,1]
                                   0                          -0 
   222 relIndividuoGrupoMax[3,0]
                                   0                          -0 
   223 relIndividuoGrupoMax[3,1]
                                   0                          -0 
   224 relIndividuoGrupoMax[4,0]
                                   0                          -0 
   225 relIndividuoGrupoMax[4,1]
                                   0                          -0 
   226 relIndividuoGrupoMax[5,0]
                                   0                          -0 
   227 relIndividuoGrupoMax[5,1]
                                   0                          -0 
   228 relIndividuoGrupoMax[6,0]
                                   0                          -0 
   229 relIndividuoGrupoMax[6,1]
                                   0                          -0 
   230 relIndividuoGrupoMax[7,0]
                                   0                          -0 
   231 relIndividuoGrupoMax[7,1]
                                   0                          -0 
   232 relIndividuoGrupoMax[8,0]
                                   0                          -0 
   233 relIndividuoGrupoMax[8,1]
                                   0                          -0 
   234 relIndividuoGrupoMax[9,0]
                                   0                          -0 
   235 relIndividuoGrupoMax[9,1]
                                   0                          -0 

   No. Column name       Activity     Lower bound   Upper bound
------ ------------    ------------- ------------- -------------
     1 x[0,0]       *              1             0             1 
     2 x[0,1]       *              0             0             1 
     3 x[1,0]       *              0             0             1 
     4 x[1,1]       *              1             0             1 
     5 x[2,0]       *              0             0             1 
     6 x[2,1]       *              1             0             1 
     7 x[3,0]       *              1             0             1 
     8 x[3,1]       *              0             0             1 
     9 x[4,0]       *              0             0             1 
    10 x[4,1]       *              1             0             1 
    11 x[5,0]       *              0             0             1 
    12 x[5,1]       *              1             0             1 
    13 x[6,0]       *              0             0             1 
    14 x[6,1]       *              1             0             1 
    15 x[7,0]       *              1             0             1 
    16 x[7,1]       *              0             0             1 
    17 x[8,0]       *              1             0             1 
    18 x[8,1]       *              0             0             1 
    19 x[9,0]       *              1             0             1 
    20 x[9,1]       *              0             0             1 
    21 y[0,1,0]     *              0             0             1 
    22 y[0,2,0]     *              0             0             1 
    23 y[0,3,0]     *              1             0             1 
    24 y[0,4,0]     *              0             0             1 
    25 y[0,5,0]     *              0             0             1 
    26 y[0,6,0]     *              0             0             1 
    27 y[0,7,0]     *              1             0             1 
    28 y[0,8,0]     *              1             0             1 
    29 y[0,9,0]     *              1             0             1 
    30 y[1,0,0]     *              0             0             1 
    31 y[1,2,0]     *              0             0             1 
    32 y[1,3,0]     *              0             0             1 
    33 y[1,4,0]     *              0             0             1 
    34 y[1,5,0]     *              0             0             1 
    35 y[1,6,0]     *              0             0             1 
    36 y[1,7,0]     *              0             0             1 
    37 y[1,8,0]     *              0             0             1 
    38 y[1,9,0]     *              0             0             1 
    39 y[2,0,0]     *              0             0             1 
    40 y[2,1,0]     *              0             0             1 
    41 y[2,3,0]     *              0             0             1 
    42 y[2,4,0]     *              0             0             1 
    43 y[2,5,0]     *              0             0             1 
    44 y[2,6,0]     *              0             0             1 
    45 y[2,7,0]     *              0             0             1 
    46 y[2,8,0]     *              0             0             1 
    47 y[2,9,0]     *              0             0             1 
    48 y[3,0,0]     *              1             0             1 
    49 y[3,1,0]     *              0             0             1 
    50 y[3,2,0]     *              0             0             1 
    51 y[3,4,0]     *              0             0             1 
    52 y[3,5,0]     *              0             0             1 
    53 y[3,6,0]     *              0             0             1 
    54 y[3,7,0]     *              1             0             1 
    55 y[3,8,0]     *              1             0             1 
    56 y[3,9,0]     *              1             0             1 
    57 y[4,0,0]     *              0             0             1 
    58 y[4,1,0]     *              0             0             1 
    59 y[4,2,0]     *              0             0             1 
    60 y[4,3,0]     *              0             0             1 
    61 y[4,5,0]     *              0             0             1 
    62 y[4,6,0]     *              0             0             1 
    63 y[4,7,0]     *              0             0             1 
    64 y[4,8,0]     *              0             0             1 
    65 y[4,9,0]     *              0             0             1 
    66 y[5,0,0]     *              0             0             1 
    67 y[5,1,0]     *              0             0             1 
    68 y[5,2,0]     *              0             0             1 
    69 y[5,3,0]     *              0             0             1 
    70 y[5,4,0]     *              0             0             1 
    71 y[5,6,0]     *              0             0             1 
    72 y[5,7,0]     *              0             0             1 
    73 y[5,8,0]     *              0             0             1 
    74 y[5,9,0]     *              0             0             1 
    75 y[6,0,0]     *              0             0             1 
    76 y[6,1,0]     *              0             0             1 
    77 y[6,2,0]     *              0             0             1 
    78 y[6,3,0]     *              0             0             1 
    79 y[6,4,0]     *              0             0             1 
    80 y[6,5,0]     *              0             0             1 
    81 y[6,7,0]     *              0             0             1 
    82 y[6,8,0]     *              0             0             1 
    83 y[6,9,0]     *              0             0             1 
    84 y[7,0,0]     *              1             0             1 
    85 y[7,1,0]     *              0             0             1 
    86 y[7,2,0]     *              0             0             1 
    87 y[7,3,0]     *              1             0             1 
    88 y[7,4,0]     *              0             0             1 
    89 y[7,5,0]     *              0             0             1 
    90 y[7,6,0]     *              0             0             1 
    91 y[7,8,0]     *              1             0             1 
    92 y[7,9,0]     *              1             0             1 
    93 y[8,0,0]     *              1             0             1 
    94 y[8,1,0]     *              0             0             1 
    95 y[8,2,0]     *              0             0             1 
    96 y[8,3,0]     *              1             0             1 
    97 y[8,4,0]     *              0             0             1 
    98 y[8,5,0]     *              0             0             1 
    99 y[8,6,0]     *              0             0             1 
   100 y[8,7,0]     *              1             0             1 
   101 y[8,9,0]     *              1             0             1 
   102 y[9,0,0]     *              1             0             1 
   103 y[9,1,0]     *              0             0             1 
   104 y[9,2,0]     *              0             0             1 
   105 y[9,3,0]     *              1             0             1 
   106 y[9,4,0]     *              0             0             1 
   107 y[9,5,0]     *              0             0             1 
   108 y[9,6,0]     *              0             0             1 
   109 y[9,7,0]     *              1             0             1 
   110 y[9,8,0]     *              1             0             1 
   111 y[0,1,1]     *              0             0             1 
   112 y[0,2,1]     *              0             0             1 
   113 y[0,3,1]     *              0             0             1 
   114 y[0,4,1]     *              0             0             1 
   115 y[0,5,1]     *              0             0             1 
   116 y[0,6,1]     *              0             0             1 
   117 y[0,7,1]     *              0             0             1 
   118 y[0,8,1]     *              0             0             1 
   119 y[0,9,1]     *              0             0             1 
   120 y[1,0,1]     *              0             0             1 
   121 y[1,2,1]     *              1             0             1 
   122 y[1,3,1]     *              0             0             1 
   123 y[1,4,1]     *              1             0             1 
   124 y[1,5,1]     *              1             0             1 
   125 y[1,6,1]     *              1             0             1 
   126 y[1,7,1]     *              0             0             1 
   127 y[1,8,1]     *              0             0             1 
   128 y[1,9,1]     *              0             0             1 
   129 y[2,0,1]     *              0             0             1 
   130 y[2,1,1]     *              1             0             1 
   131 y[2,3,1]     *              0             0             1 
   132 y[2,4,1]     *              1             0             1 
   133 y[2,5,1]     *              1             0             1 
   134 y[2,6,1]     *              1             0             1 
   135 y[2,7,1]     *              0             0             1 
   136 y[2,8,1]     *              0             0             1 
   137 y[2,9,1]     *              0             0             1 
   138 y[3,0,1]     *              0             0             1 
   139 y[3,1,1]     *              0             0             1 
   140 y[3,2,1]     *              0             0             1 
   141 y[3,4,1]     *              0             0             1 
   142 y[3,5,1]     *              0             0             1 
   143 y[3,6,1]     *              0             0             1 
   144 y[3,7,1]     *              0             0             1 
   145 y[3,8,1]     *              0             0             1 
   146 y[3,9,1]     *              0             0             1 
   147 y[4,0,1]     *              0             0             1 
   148 y[4,1,1]     *              1             0             1 
   149 y[4,2,1]     *              1             0             1 
   150 y[4,3,1]     *              0             0             1 
   151 y[4,5,1]     *              1             0             1 
   152 y[4,6,1]     *              1             0             1 
   153 y[4,7,1]     *              0             0             1 
   154 y[4,8,1]     *              0             0             1 
   155 y[4,9,1]     *              0             0             1 
   156 y[5,0,1]     *              0             0             1 
   157 y[5,1,1]     *              1             0             1 
   158 y[5,2,1]     *              1             0             1 
   159 y[5,3,1]     *              0             0             1 
   160 y[5,4,1]     *              1             0             1 
   161 y[5,6,1]     *              1             0             1 
   162 y[5,7,1]     *              0             0             1 
   163 y[5,8,1]     *              0             0             1 
   164 y[5,9,1]     *              0             0             1 
   165 y[6,0,1]     *              0             0             1 
   166 y[6,1,1]     *              1             0             1 
   167 y[6,2,1]     *              1             0             1 
   168 y[6,3,1]     *              0             0             1 
   169 y[6,4,1]     *              1             0             1 
   170 y[6,5,1]     *              1             0             1 
   171 y[6,7,1]     *              0             0             1 
   172 y[6,8,1]     *              0             0             1 
   173 y[6,9,1]     *              0             0             1 
   174 y[7,0,1]     *              0             0             1 
   175 y[7,1,1]     *              0             0             1 
   176 y[7,2,1]     *              0             0             1 
   177 y[7,3,1]     *              0             0             1 
   178 y[7,4,1]     *              0             0             1 
   179 y[7,5,1]     *              0             0             1 
   180 y[7,6,1]     *              0             0             1 
   181 y[7,8,1]     *              0             0             1 
   182 y[7,9,1]     *              0             0             1 
   183 y[8,0,1]     *              0             0             1 
   184 y[8,1,1]     *              0             0             1 
   185 y[8,2,1]     *              0             0             1 
   186 y[8,3,1]     *              0             0             1 
   187 y[8,4,1]     *              0             0             1 
   188 y[8,5,1]     *              0             0             1 
   189 y[8,6,1]     *              0             0             1 
   190 y[8,7,1]     *              0             0             1 
   191 y[8,9,1]     *              0             0             1 
   192 y[9,0,1]     *              0             0             1 
   193 y[9,1,1]     *              0             0             1 
   194 y[9,2,1]     *              0             0             1 
   195 y[9,3,1]     *              0             0             1 
   196 y[9,4,1]     *              0             0             1 
   197 y[9,5,1]     *              0             0             1 
   198 y[9,6,1]     *              0             0             1 
   199 y[9,7,1]     *              0             0             1 
   200 y[9,8,1]     *              0             0             1 

Integer feasibility conditions:

KKT.PE: max.abs.err = 0.00e+00 on row 0
        max.rel.err = 0.00e+00 on row 0
        High quality

KKT.PB: max.abs.err = 0.00e+00 on row 0
        max.rel.err = 0.00e+00 on row 0
        High quality

End of output
